(declare-const x sl.list.loc)
(declare-const y sl.list.loc)
(declare-const xdata Int)
(declare-const ydata Int)
(declare-const a Int)
(declare-const xnn sl.list.loc)
(declare-const xnd Int)
(declare-const xd Int)
(assert (sl.sepcon (sl.sepcon (sl.list.pointsto x y)
                              (sl.list.pointsto y sl.list.null))
                   (sl.sepcon (sl.list.data x xdata)
                              (sl.list.data y ydata))))
;; Force all data values to be equal to 9
(assert (sl.list.dpred.next (= sl.alpha sl.beta) x))
(assert (= xdata 9))
